! UHF DLPNO-CCSD def2-TZVPP def2-TZVPP/C ExtremeSCF NoAutoStart

%maxcore 4000

%mdci
      UseQROs      true
      CIType       CCSD
      MaxIter      35
      Randomize    false
      end

* xyz 0 2
    Al         0.000000000      0.000000000      0.000000000
*
