! UHF DLPNO-CCSD 6-31G* aug-cc-pV6Z/C ExtremeSCF NoAutoStart

%maxcore 4000

%mdci
      UseQROs      true
      CIType       CCSD
      MaxIter      35
      Randomize    false
      end

* xyz 0 3
    C          0.000000000      0.000000000      0.000000000
    H          1.077260000      0.000000000      0.000000000
    H         -0.743427000      0.779619000      0.000000000
*
