! UHF DLPNO-CCSD 6-31G* aug-cc-pV6Z/C ExtremeSCF NoAutoStart

%maxcore 4000

%mdci
      UseQROs      true
      CIType       CCSD
      MaxIter      35
      Randomize    false
      end

* xyz 0 2
    C          0.000000000      0.000000000      0.000000000
    H          1.078590000      0.000000000      0.000000000
    C         -0.961158000      0.895478000      0.000000000
    H         -2.008557000      0.614976000     -0.000000000
    H         -0.739903000      1.962642000     -0.000000000
*
