! UHF DLPNO-CCSD 6-31G* aug-cc-pV6Z/C ExtremeSCF NoAutoStart

%maxcore 4000

%mdci
      UseQROs      true
      CIType       CCSD
      MaxIter      35
      Randomize    false
      end

* xyz 0 2
    C          0.000000000      0.000000000      0.000000000
    H          1.077700000      0.000000000      0.000000000
    H         -0.538850000      0.933316000      0.000000000
    H         -0.538850000     -0.933316000     -0.000000000
*
