! UHF DLPNO-CCSD 6-31G* aug-cc-pV6Z/C ExtremeSCF NoAutoStart

%maxcore 4000

%mdci
      UseQROs      true
      CIType       CCSD
      MaxIter      35
      Randomize    false
      end

* xyz 0 2
    Cl         0.000000000      0.000000000      0.000000000
    O          2.032306000      0.000000000      0.000000000
    O          2.549909000      1.091605000      0.000000000
*
