! UHF DLPNO-CCSD 6-31G* aug-cc-pV6Z/C ExtremeSCF NoAutoStart

%maxcore 4000

%mdci
      UseQROs      true
      CIType       CCSD
      MaxIter      35
      Randomize    false
      end

* xyz 0 2
    O          0.000000000      0.000000000      0.000000000
    O          1.330276000      0.000000000      0.000000000
    H          1.568767000      0.940588000      0.000000000
*
