! UHF DLPNO-CCSD 6-31G* aug-cc-pV6Z/C ExtremeSCF NoAutoStart

%maxcore 4000

%mdci
      UseQROs      true
      CIType       CCSD
      MaxIter      35
      Randomize    false
      end

* xyz 0 2
    S          0.000000000      0.000000000      0.000000000
    H          1.350302000      0.000000000      0.000000000
    S         -0.386633000      1.938199000      0.000000000
*
