! UHF DLPNO-CCSD 6-31G* aug-cc-pV6Z/C ExtremeSCF NoAutoStart

%maxcore 4000

%mdci
      UseQROs      true
      CIType       CCSD
      MaxIter      35
      Randomize    false
      end

* xyz 0 2
    O          0.000000000      0.000000000      0.000000000
    O          1.228000000      0.000000000      0.000000000
    O          1.765577000      1.493178000      0.000000000
    H          2.709895000      1.280367000      0.000000000
*
